(set-logic QF_UF)
(declare-fun G101 () Bool)
(declare-fun G104 () Bool)
(declare-fun G107 () Bool)
(declare-fun G110 () Bool)
(declare-fun G113 () Bool)
(declare-fun G116 () Bool)
(declare-fun G119 () Bool)
(declare-fun G122 () Bool)
(declare-fun G125 () Bool)
(declare-fun G128 () Bool)
(declare-fun G131 () Bool)
(declare-fun G134 () Bool)
(declare-fun G137 () Bool)
(declare-fun G140 () Bool)
(declare-fun G143 () Bool)
(declare-fun G146 () Bool)
(declare-fun G210 () Bool)
(declare-fun G214 () Bool)
(declare-fun G217 () Bool)
(declare-fun G221 () Bool)
(declare-fun G224 () Bool)
(declare-fun G227 () Bool)
(declare-fun G234 () Bool)
(declare-fun G237 () Bool)
(declare-fun G469 () Bool)
(declare-fun G472 () Bool)
(declare-fun G475 () Bool)
(declare-fun G478 () Bool)
(declare-fun G898 () Bool)
(declare-fun G900 () Bool)
(declare-fun G902 () Bool)
(declare-fun G952 () Bool)
(declare-fun G953 () Bool)
(assert (let ((.def_0 (and G900 G227))) (let ((.def_1 (not .def_0))) (let ((.def_2 (and G953 .def_1))) (let ((.def_3 (not G140))) (let ((.def_4 (and G125 .def_3))) (let ((.def_5 (not .def_4))) (let ((.def_6 (not G125))) (let ((.def_7 (and .def_6 G140))) (let ((.def_8 (not .def_7))) (let ((.def_9 (and .def_8 .def_5))) (let ((.def_10 (not G146))) (let ((.def_11 (and .def_10 G143))) (let ((.def_12 (not .def_11))) (let ((.def_13 (not G143))) (let ((.def_14 (and G146 .def_13))) (let ((.def_15 (not .def_14))) (let ((.def_16 (and .def_15 .def_12))) (let ((.def_17 (not G128))) (let ((.def_18 (and .def_17 .def_16))) (let ((.def_19 (not .def_18))) (let ((.def_20 (not .def_16))) (let ((.def_21 (and G128 .def_20))) (let ((.def_22 (not .def_21))) (let ((.def_23 (and .def_22 .def_19))) (let ((.def_24 (not G137))) (let ((.def_25 (and .def_24 G134))) (let ((.def_26 (not .def_25))) (let ((.def_27 (not G134))) (let ((.def_28 (and G137 .def_27))) (let ((.def_29 (not .def_28))) (let ((.def_30 (and .def_29 .def_26))) (let ((.def_31 (not .def_30))) (let ((.def_32 (and .def_31 G131))) (let ((.def_33 (not .def_32))) (let ((.def_34 (not G131))) (let ((.def_35 (and .def_34 .def_30))) (let ((.def_36 (not .def_35))) (let ((.def_37 (and .def_36 .def_33))) (let ((.def_38 (and .def_37 .def_23))) (let ((.def_39 (not .def_38))) (let ((.def_40 (not .def_37))) (let ((.def_41 (not .def_23))) (let ((.def_42 (and .def_41 .def_40))) (let ((.def_43 (not .def_42))) (let ((.def_44 (and .def_43 .def_39))) (let ((.def_45 (and .def_44 .def_9))) (let ((.def_46 (not .def_45))) (let ((.def_47 (not .def_9))) (let ((.def_48 (not .def_44))) (let ((.def_49 (and .def_48 .def_47))) (let ((.def_50 (not .def_49))) (let ((.def_51 (and .def_50 .def_46))) (let ((.def_52 (not G900))) (let ((.def_53 (and G953 .def_52))) (let ((.def_54 (not .def_53))) (let ((.def_55 (and .def_54 .def_51))) (let ((.def_56 (not .def_55))) (let ((.def_57 (not G953))) (let ((.def_58 (not G902))) (let ((.def_59 (not G119))) (let ((.def_60 (and G116 .def_59))) (let ((.def_61 (not .def_60))) (let ((.def_62 (not G116))) (let ((.def_63 (and G119 .def_62))) (let ((.def_64 (not .def_63))) (let ((.def_65 (and .def_64 .def_61))) (let ((.def_66 (not .def_65))) (let ((.def_67 (and G113 .def_66))) (let ((.def_68 (not .def_67))) (let ((.def_69 (not G113))) (let ((.def_70 (and .def_69 .def_65))) (let ((.def_71 (not .def_70))) (let ((.def_72 (and .def_71 .def_68))) (let ((.def_73 (not G101))) (let ((.def_74 (not G107))) (let ((.def_75 (and .def_74 G104))) (let ((.def_76 (not .def_75))) (let ((.def_77 (not G104))) (let ((.def_78 (and G107 .def_77))) (let ((.def_79 (not .def_78))) (let ((.def_80 (and .def_79 .def_76))) (let ((.def_81 (and .def_80 .def_73))) (let ((.def_82 (not .def_81))) (let ((.def_83 (not .def_80))) (let ((.def_84 (and .def_83 G101))) (let ((.def_85 (not .def_84))) (let ((.def_86 (and .def_85 .def_82))) (let ((.def_87 (and .def_86 .def_72))) (let ((.def_88 (not .def_87))) (let ((.def_89 (not .def_86))) (let ((.def_90 (not .def_72))) (let ((.def_91 (and .def_90 .def_89))) (let ((.def_92 (not .def_91))) (let ((.def_93 (and .def_92 .def_88))) (let ((.def_94 (not G110))) (let ((.def_95 (and .def_94 G122))) (let ((.def_96 (not .def_95))) (let ((.def_97 (not G122))) (let ((.def_98 (and G110 .def_97))) (let ((.def_99 (not .def_98))) (let ((.def_100 (and .def_99 .def_96))) (let ((.def_101 (and .def_100 .def_93))) (let ((.def_102 (not .def_101))) (let ((.def_103 (not .def_93))) (let ((.def_104 (not .def_100))) (let ((.def_105 (and .def_104 .def_103))) (let ((.def_106 (not .def_105))) (let ((.def_107 (and .def_106 .def_102))) (let ((.def_108 (and .def_13 G146))) (let ((.def_109 (not .def_108))) (let ((.def_110 (and .def_12 .def_109))) (let ((.def_111 (not .def_110))) (let ((.def_112 (and G128 .def_111))) (let ((.def_113 (not .def_112))) (let ((.def_114 (and .def_110 .def_17))) (let ((.def_115 (not .def_114))) (let ((.def_116 (and .def_115 .def_113))) (let ((.def_117 (and .def_116 .def_6))) (let ((.def_118 (not .def_117))) (let ((.def_119 (not .def_116))) (let ((.def_120 (and .def_119 G125))) (let ((.def_121 (not .def_120))) (let ((.def_122 (and .def_121 .def_118))) (let ((.def_123 (and G224 .def_57))) (let ((.def_124 (and .def_123 .def_122))) (let ((.def_125 (not .def_124))) (let ((.def_126 (not .def_123))) (let ((.def_127 (not .def_122))) (let ((.def_128 (and .def_127 .def_126))) (let ((.def_129 (not .def_128))) (let ((.def_130 (and .def_129 .def_125))) (let ((.def_131 (and .def_130 .def_107))) (let ((.def_132 (not .def_131))) (let ((.def_133 (not .def_107))) (let ((.def_134 (not .def_130))) (let ((.def_135 (and .def_134 .def_133))) (let ((.def_136 (not .def_135))) (let ((.def_137 (and .def_136 .def_132))) (let ((.def_138 (and .def_137 .def_58))) (let ((.def_139 (not .def_138))) (let ((.def_140 (not G237))) (let ((.def_141 (and .def_58 .def_140))) (let ((.def_142 (not .def_141))) (let ((.def_143 (and .def_142 G210))) (let ((.def_144 (and .def_143 .def_139))) (let ((.def_145 (not .def_144))) (let ((.def_146 (not .def_143))) (let ((.def_147 (and .def_146 .def_138))) (let ((.def_148 (not .def_147))) (let ((.def_149 (and .def_148 .def_145))) (let ((.def_150 (and G214 .def_142))) (let ((.def_151 (not .def_150))) (let ((.def_152 (and .def_151 .def_149))) (let ((.def_153 (and .def_57 G234 G217))) (let ((.def_154 (not .def_153))) (let ((.def_155 (and G116 .def_97))) (let ((.def_156 (not .def_155))) (let ((.def_157 (and .def_62 G122))) (let ((.def_158 (not .def_157))) (let ((.def_159 (and .def_158 .def_156))) (let ((.def_160 (not .def_159))) (let ((.def_161 (and .def_160 G107))) (let ((.def_162 (not .def_161))) (let ((.def_163 (and .def_159 .def_74))) (let ((.def_164 (not .def_163))) (let ((.def_165 (and .def_164 .def_162))) (let ((.def_166 (and .def_17 G143))) (let ((.def_167 (not .def_166))) (let ((.def_168 (and .def_13 G128))) (let ((.def_169 (not .def_168))) (let ((.def_170 (and .def_169 .def_167))) (let ((.def_171 (and .def_170 .def_27))) (let ((.def_172 (not .def_171))) (let ((.def_173 (not .def_170))) (let ((.def_174 (and G134 .def_173))) (let ((.def_175 (not .def_174))) (let ((.def_176 (and .def_175 .def_172))) (let ((.def_177 (not .def_176))) (let ((.def_178 (and .def_177 .def_165))) (let ((.def_179 (not .def_178))) (let ((.def_180 (not .def_165))) (let ((.def_181 (and .def_180 .def_176))) (let ((.def_182 (not .def_181))) (let ((.def_183 (and .def_182 .def_179))) (let ((.def_184 (not .def_183))) (let ((.def_185 (and .def_184 .def_154))) (let ((.def_186 (not .def_185))) (let ((.def_187 (and .def_183 .def_153))) (let ((.def_188 (not .def_187))) (let ((.def_189 (and .def_188 .def_186))) (let ((.def_190 (not .def_189))) (let ((.def_191 (and .def_58 .def_190))) (let ((.def_192 (not G478))) (let ((.def_193 (and .def_192 .def_191))) (let ((.def_194 (not .def_193))) (let ((.def_195 (not .def_191))) (let ((.def_196 (and .def_195 G478))) (let ((.def_197 (not .def_196))) (let ((.def_198 (and .def_197 .def_194))) (let ((.def_199 (not .def_198))) (let ((.def_200 (and .def_3 G125))) (let ((.def_201 (not .def_200))) (let ((.def_202 (and .def_201 .def_8))) (let ((.def_203 (and .def_10 .def_202))) (let ((.def_204 (not .def_203))) (let ((.def_205 (not .def_202))) (let ((.def_206 (and G146 .def_205))) (let ((.def_207 (not .def_206))) (let ((.def_208 (and .def_207 .def_204))) (let ((.def_209 (and .def_57 G214 .def_140))) (let ((.def_210 (and G143 .def_209))) (let ((.def_211 (not .def_210))) (let ((.def_212 (not .def_209))) (let ((.def_213 (and .def_13 .def_212))) (let ((.def_214 (not .def_213))) (let ((.def_215 (and .def_214 .def_211))) (let ((.def_216 (and .def_215 .def_34))) (let ((.def_217 (not .def_216))) (let ((.def_218 (not .def_215))) (let ((.def_219 (and .def_218 G131))) (let ((.def_220 (not .def_219))) (let ((.def_221 (and .def_220 .def_217))) (let ((.def_222 (not .def_221))) (let ((.def_223 (and .def_222 .def_208))) (let ((.def_224 (not .def_223))) (let ((.def_225 (not .def_208))) (let ((.def_226 (and .def_225 .def_221))) (let ((.def_227 (not .def_226))) (let ((.def_228 (and .def_227 .def_224))) (let ((.def_229 (and G122 .def_69))) (let ((.def_230 (not .def_229))) (let ((.def_231 (and .def_97 G113))) (let ((.def_232 (not .def_231))) (let ((.def_233 (and .def_232 .def_230))) (let ((.def_234 (and .def_233 .def_77))) (let ((.def_235 (not .def_234))) (let ((.def_236 (not .def_233))) (let ((.def_237 (and G104 .def_236))) (let ((.def_238 (not .def_237))) (let ((.def_239 (and .def_238 .def_235))) (let ((.def_240 (not .def_239))) (let ((.def_241 (and .def_240 .def_228))) (let ((.def_242 (not .def_241))) (let ((.def_243 (not .def_228))) (let ((.def_244 (and .def_239 .def_243))) (let ((.def_245 (not .def_244))) (let ((.def_246 (and .def_245 .def_242))) (let ((.def_247 (not .def_246))) (let ((.def_248 (and .def_58 .def_247))) (let ((.def_249 (not G475))) (let ((.def_250 (and .def_249 .def_248))) (let ((.def_251 (not .def_250))) (let ((.def_252 (not .def_248))) (let ((.def_253 (and .def_252 G475))) (let ((.def_254 (not .def_253))) (let ((.def_255 (and .def_254 .def_251))) (let ((.def_256 (and .def_255 .def_199))) (let ((.def_257 (and G237 G234))) (let ((.def_258 (not .def_257))) (let ((.def_259 (and .def_258 .def_57 G952))) (let ((.def_260 (not .def_259))) (let ((.def_261 (and .def_258 G953 G902 .def_52))) (let ((.def_262 (not .def_261))) (let ((.def_263 (and .def_262 .def_260))) (let ((.def_264 (not .def_263))) (let ((.def_265 (and G128 .def_59))) (let ((.def_266 (not .def_265))) (let ((.def_267 (and G119 .def_17))) (let ((.def_268 (not .def_267))) (let ((.def_269 (and .def_268 .def_266))) (let ((.def_270 (not .def_269))) (let ((.def_271 (and .def_270 G110))) (let ((.def_272 (not .def_271))) (let ((.def_273 (and .def_94 .def_269))) (let ((.def_274 (not .def_273))) (let ((.def_275 (and .def_274 .def_272))) (let ((.def_276 (and .def_202 .def_10))) (let ((.def_277 (not .def_276))) (let ((.def_278 (and .def_207 .def_277))) (let ((.def_279 (not .def_278))) (let ((.def_280 (and .def_279 .def_275))) (let ((.def_281 (not .def_280))) (let ((.def_282 (not .def_275))) (let ((.def_283 (and .def_278 .def_282))) (let ((.def_284 (not .def_283))) (let ((.def_285 (and .def_284 .def_281))) (let ((.def_286 (not .def_285))) (let ((.def_287 (and G234 G221 .def_57))) (let ((.def_288 (and G137 .def_287))) (let ((.def_289 (not .def_288))) (let ((.def_290 (not .def_287))) (let ((.def_291 (and .def_290 .def_24))) (let ((.def_292 (not .def_291))) (let ((.def_293 (and .def_292 .def_289))) (let ((.def_294 (not .def_293))) (let ((.def_295 (and .def_294 .def_286))) (let ((.def_296 (not .def_295))) (let ((.def_297 (and .def_293 .def_285))) (let ((.def_298 (not .def_297))) (let ((.def_299 (and .def_298 .def_296))) (let ((.def_300 (not .def_299))) (let ((.def_301 (and .def_300 .def_58))) (let ((.def_302 (not .def_301))) (let ((.def_303 (and .def_58 G234))) (let ((.def_304 (not .def_303))) (let ((.def_305 (and .def_304 G217))) (let ((.def_306 (and .def_305 .def_302))) (let ((.def_307 (not .def_306))) (let ((.def_308 (not .def_305))) (let ((.def_309 (and .def_308 .def_301))) (let ((.def_310 (not .def_309))) (let ((.def_311 (and .def_310 .def_307))) (let ((.def_312 (and .def_57 .def_140 G210))) (let ((.def_313 (and G101 .def_312))) (let ((.def_314 (not .def_313))) (let ((.def_315 (not .def_312))) (let ((.def_316 (and .def_73 .def_315))) (let ((.def_317 (not .def_316))) (let ((.def_318 (and .def_317 .def_314))) (let ((.def_319 (not .def_318))) (let ((.def_320 (and .def_62 G119))) (let ((.def_321 (not .def_320))) (let ((.def_322 (and .def_61 .def_321))) (let ((.def_323 (and .def_69 .def_322))) (let ((.def_324 (not .def_323))) (let ((.def_325 (not .def_322))) (let ((.def_326 (and .def_325 G113))) (let ((.def_327 (not .def_326))) (let ((.def_328 (and .def_327 .def_324))) (let ((.def_329 (and .def_27 G137))) (let ((.def_330 (not .def_329))) (let ((.def_331 (and .def_330 .def_26))) (let ((.def_332 (and .def_34 .def_331))) (let ((.def_333 (not .def_332))) (let ((.def_334 (not .def_331))) (let ((.def_335 (and .def_334 G131))) (let ((.def_336 (not .def_335))) (let ((.def_337 (and .def_336 .def_333))) (let ((.def_338 (and .def_116 .def_337))) (let ((.def_339 (not .def_338))) (let ((.def_340 (not .def_337))) (let ((.def_341 (and .def_340 .def_119))) (let ((.def_342 (not .def_341))) (let ((.def_343 (and .def_342 .def_339))) (let ((.def_344 (and .def_343 .def_328))) (let ((.def_345 (not .def_344))) (let ((.def_346 (not .def_328))) (let ((.def_347 (not .def_343))) (let ((.def_348 (and .def_347 .def_346))) (let ((.def_349 (not .def_348))) (let ((.def_350 (and .def_349 .def_345))) (let ((.def_351 (and .def_350 .def_319))) (let ((.def_352 (not .def_351))) (let ((.def_353 (not .def_350))) (let ((.def_354 (and .def_318 .def_353))) (let ((.def_355 (not .def_354))) (let ((.def_356 (and .def_355 .def_352))) (let ((.def_357 (not .def_356))) (let ((.def_358 (and .def_58 .def_357))) (let ((.def_359 (not .def_358))) (let ((.def_360 (and G472 .def_359))) (let ((.def_361 (not .def_360))) (let ((.def_362 (not G472))) (let ((.def_363 (and .def_362 .def_358))) (let ((.def_364 (not .def_363))) (let ((.def_365 (and .def_364 .def_361))) (let ((.def_366 (not .def_365))) (let ((.def_367 (and .def_366 .def_311))) (let ((.def_368 (and .def_3 G110))) (let ((.def_369 (not .def_368))) (let ((.def_370 (and G140 .def_94))) (let ((.def_371 (not .def_370))) (let ((.def_372 (and .def_371 .def_369))) (let ((.def_373 (and .def_57 G227))) (let ((.def_374 (and .def_373 .def_372))) (let ((.def_375 (not .def_374))) (let ((.def_376 (not .def_372))) (let ((.def_377 (not .def_373))) (let ((.def_378 (and .def_377 .def_376))) (let ((.def_379 (not .def_378))) (let ((.def_380 (and .def_379 .def_375))) (let ((.def_381 (and G104 .def_74))) (let ((.def_382 (not .def_381))) (let ((.def_383 (and .def_77 G107))) (let ((.def_384 (not .def_383))) (let ((.def_385 (and .def_384 .def_382))) (let ((.def_386 (and .def_385 .def_73))) (let ((.def_387 (not .def_386))) (let ((.def_388 (not .def_385))) (let ((.def_389 (and .def_388 G101))) (let ((.def_390 (not .def_389))) (let ((.def_391 (and .def_390 .def_387))) (let ((.def_392 (not .def_391))) (let ((.def_393 (and .def_41 .def_392))) (let ((.def_394 (not .def_393))) (let ((.def_395 (and .def_391 .def_23))) (let ((.def_396 (not .def_395))) (let ((.def_397 (and .def_396 .def_394))) (let ((.def_398 (not .def_397))) (let ((.def_399 (and .def_340 .def_398))) (let ((.def_400 (not .def_399))) (let ((.def_401 (and .def_337 .def_397))) (let ((.def_402 (not .def_401))) (let ((.def_403 (and .def_402 .def_400))) (let ((.def_404 (and .def_403 .def_380))) (let ((.def_405 (not .def_404))) (let ((.def_406 (not .def_380))) (let ((.def_407 (not .def_403))) (let ((.def_408 (and .def_407 .def_406))) (let ((.def_409 (not .def_408))) (let ((.def_410 (and .def_409 .def_405))) (let ((.def_411 (not .def_410))) (let ((.def_412 (and .def_58 .def_411))) (let ((.def_413 (not .def_412))) (let ((.def_414 (and .def_413 G469))) (let ((.def_415 (not .def_414))) (let ((.def_416 (not G469))) (let ((.def_417 (and .def_416 .def_412))) (let ((.def_418 (not .def_417))) (let ((.def_419 (and .def_418 .def_415))) (let ((.def_420 (not .def_419))) (let ((.def_421 (and G221 .def_304))) (let ((.def_422 (not .def_421))) (let ((.def_423 (and .def_422 .def_420))) (let ((.def_424 (and .def_423 .def_367 .def_264 .def_256 .def_152))) (let ((.def_425 (not .def_424))) (let ((.def_426 (and .def_198 .def_255))) (let ((.def_427 (not .def_311))) (let ((.def_428 (and .def_366 .def_427))) (let ((.def_429 (and .def_423 .def_428 .def_264 .def_152 .def_426))) (let ((.def_430 (not .def_429))) (let ((.def_431 (not .def_149))) (let ((.def_432 (and .def_431 .def_151))) (let ((.def_433 (and .def_428 .def_264 .def_256 .def_432 .def_423))) (let ((.def_434 (not .def_433))) (let ((.def_435 (not .def_255))) (let ((.def_436 (and .def_198 .def_435))) (let ((.def_437 (and .def_423 .def_428 .def_436 .def_264 .def_432))) (let ((.def_438 (not .def_437))) (let ((.def_439 (and .def_423 .def_436 .def_367 .def_264 .def_152))) (let ((.def_440 (not .def_439))) (let ((.def_441 (and .def_422 .def_419))) (let ((.def_442 (and .def_365 .def_427))) (let ((.def_443 (and .def_436 .def_264 .def_442 .def_432 .def_441))) (let ((.def_444 (not .def_443))) (let ((.def_445 (and .def_423 .def_436 .def_264 .def_442 .def_152))) (let ((.def_446 (not .def_445))) (let ((.def_447 (and .def_199 .def_435))) (let ((.def_448 (and .def_423 .def_447 .def_367 .def_264 .def_432))) (let ((.def_449 (not .def_448))) (let ((.def_450 (and .def_449 .def_446 .def_444 .def_440 .def_438 .def_434 .def_430 .def_425))) (let ((.def_451 (not .def_450))) (let ((.def_452 (and .def_451 .def_57))) (let ((.def_453 (and .def_452 .def_56))) (let ((.def_454 (not .def_453))) (let ((.def_455 (not .def_452))) (let ((.def_456 (and .def_455 .def_55))) (let ((.def_457 (not .def_456))) (let ((.def_458 (and .def_457 .def_454))) (let ((.def_459 (and .def_458 .def_2))) (let ((.def_460 (not .def_459))) (let ((.def_461 (not .def_2))) (let ((.def_462 (not .def_458))) (let ((.def_463 (and .def_462 .def_461))) (let ((.def_464 (not .def_463))) (let ((.def_465 (and .def_464 .def_460))) (let ((.def_466 (not G898))) (let ((.def_467 (and .def_466 G953 .def_258 G902))) (let ((.def_468 (not .def_467))) (let ((.def_469 (and .def_260 .def_468))) (let ((.def_470 (not .def_469))) (let ((.def_471 (and .def_365 .def_311))) (let ((.def_472 (and .def_471 .def_256 .def_470 .def_432 .def_423))) (let ((.def_473 (and .def_472 .def_74))) (let ((.def_474 (not .def_473))) (let ((.def_475 (not .def_472))) (let ((.def_476 (and G107 .def_475))) (let ((.def_477 (not .def_476))) (let ((.def_478 (and .def_477 .def_474))) (let ((.def_479 (not .def_478))) (let ((.def_480 (not G952))) (let ((.def_481 (and .def_480 G953))) (let ((.def_482 (not .def_481))) (let ((.def_483 (and .def_436 .def_367 .def_470 .def_432 .def_441))) (let ((.def_484 (not .def_483))) (let ((.def_485 (and .def_428 .def_470 .def_432 .def_441 .def_426))) (let ((.def_486 (not .def_485))) (let ((.def_487 (and .def_426 .def_367 .def_470 .def_432 .def_423))) (let ((.def_488 (not .def_487))) (let ((.def_489 (and .def_426 .def_442 .def_470 .def_432 .def_423))) (let ((.def_490 (not .def_489))) (let ((.def_491 (and .def_471 .def_436 .def_470 .def_432 .def_423))) (let ((.def_492 (not .def_491))) (let ((.def_493 (and .def_471 .def_447 .def_470 .def_432 .def_441))) (let ((.def_494 (not .def_493))) (let ((.def_495 (and .def_367 .def_256 .def_470 .def_432 .def_441))) (let ((.def_496 (not .def_495))) (let ((.def_497 (and .def_496 .def_494 .def_492 .def_490 .def_475 .def_488 .def_486 .def_484))) (let ((.def_498 (and .def_450 .def_497))) (let ((.def_499 (not .def_498))) (let ((.def_500 (and .def_499 G902 .def_305))) (let ((.def_501 (and .def_500 .def_299))) (let ((.def_502 (not .def_501))) (let ((.def_503 (not .def_500))) (let ((.def_504 (and .def_503 .def_300))) (let ((.def_505 (not .def_504))) (let ((.def_506 (and .def_505 .def_502))) (let ((.def_507 (not .def_506))) (let ((.def_508 (and .def_507 .def_482))) (let ((.def_509 (and .def_438 G146))) (let ((.def_510 (not .def_509))) (let ((.def_511 (and .def_437 .def_10))) (let ((.def_512 (not .def_511))) (let ((.def_513 (and .def_512 .def_510))) (let ((.def_514 (not .def_513))) (let ((.def_515 (and .def_94 G140))) (let ((.def_516 (not .def_515))) (let ((.def_517 (and .def_516 .def_369))) (let ((.def_518 (and .def_517 .def_373))) (let ((.def_519 (not .def_518))) (let ((.def_520 (not .def_517))) (let ((.def_521 (and .def_520 .def_377))) (let ((.def_522 (not .def_521))) (let ((.def_523 (and .def_522 .def_519))) (let ((.def_524 (and .def_23 .def_391))) (let ((.def_525 (not .def_524))) (let ((.def_526 (and .def_392 .def_41))) (let ((.def_527 (not .def_526))) (let ((.def_528 (and .def_527 .def_525))) (let ((.def_529 (not .def_528))) (let ((.def_530 (and .def_529 .def_340))) (let ((.def_531 (not .def_530))) (let ((.def_532 (and .def_528 .def_337))) (let ((.def_533 (not .def_532))) (let ((.def_534 (and .def_533 .def_531))) (let ((.def_535 (and .def_534 .def_523))) (let ((.def_536 (not .def_535))) (let ((.def_537 (not .def_523))) (let ((.def_538 (not .def_534))) (let ((.def_539 (and .def_538 .def_537))) (let ((.def_540 (not .def_539))) (let ((.def_541 (and .def_540 .def_536))) (let ((.def_542 (and .def_499 G902 G469))) (let ((.def_543 (and .def_542 .def_541))) (let ((.def_544 (not .def_543))) (let ((.def_545 (not .def_541))) (let ((.def_546 (not .def_542))) (let ((.def_547 (and .def_546 .def_545))) (let ((.def_548 (not .def_547))) (let ((.def_549 (and .def_548 .def_544))) (let ((.def_550 (not .def_549))) (let ((.def_551 (and .def_550 .def_482))) (let ((.def_552 (and .def_448 .def_13))) (let ((.def_553 (not .def_552))) (let ((.def_554 (and G143 .def_449))) (let ((.def_555 (not .def_554))) (let ((.def_556 (and .def_555 .def_553))) (let ((.def_557 (not .def_556))) (let ((.def_558 (and G125 .def_119))) (let ((.def_559 (not .def_558))) (let ((.def_560 (and .def_559 .def_118))) (let ((.def_561 (and .def_123 .def_560))) (let ((.def_562 (not .def_561))) (let ((.def_563 (not .def_560))) (let ((.def_564 (and .def_563 .def_126))) (let ((.def_565 (not .def_564))) (let ((.def_566 (and .def_565 .def_562))) (let ((.def_567 (and .def_133 .def_566))) (let ((.def_568 (not .def_567))) (let ((.def_569 (not .def_566))) (let ((.def_570 (and .def_569 .def_107))) (let ((.def_571 (not .def_570))) (let ((.def_572 (and .def_571 .def_568))) (let ((.def_573 (and .def_499 G902 .def_143))) (let ((.def_574 (and .def_573 .def_572))) (let ((.def_575 (not .def_574))) (let ((.def_576 (not .def_573))) (let ((.def_577 (not .def_572))) (let ((.def_578 (and .def_577 .def_576))) (let ((.def_579 (not .def_578))) (let ((.def_580 (and .def_579 .def_575))) (let ((.def_581 (not .def_580))) (let ((.def_582 (and .def_581 .def_482))) (let ((.def_583 (and .def_3 .def_445))) (let ((.def_584 (not .def_583))) (let ((.def_585 (and G140 .def_446))) (let ((.def_586 (not .def_585))) (let ((.def_587 (and .def_586 .def_584))) (let ((.def_588 (not .def_587))) (let ((.def_589 (and .def_59 .def_485))) (let ((.def_590 (not .def_589))) (let ((.def_591 (and .def_486 G119))) (let ((.def_592 (not .def_591))) (let ((.def_593 (and .def_592 .def_590))) (let ((.def_594 (not .def_593))) (let ((.def_595 (and .def_27 .def_424))) (let ((.def_596 (not .def_595))) (let ((.def_597 (and G134 .def_425))) (let ((.def_598 (not .def_597))) (let ((.def_599 (and .def_598 .def_596))) (let ((.def_600 (not .def_599))) (let ((.def_601 (and .def_439 .def_34))) (let ((.def_602 (not .def_601))) (let ((.def_603 (and .def_440 G131))) (let ((.def_604 (not .def_603))) (let ((.def_605 (and .def_604 .def_602))) (let ((.def_606 (and .def_488 G101))) (let ((.def_607 (not .def_606))) (let ((.def_608 (and .def_73 .def_487))) (let ((.def_609 (not .def_608))) (let ((.def_610 (and .def_609 .def_607))) (let ((.def_611 (not .def_610))) (let ((.def_612 (and G224 G898))) (let ((.def_613 (not .def_612))) (let ((.def_614 (and .def_613 G953))) (let ((.def_615 (and .def_89 .def_90))) (let ((.def_616 (not .def_615))) (let ((.def_617 (and .def_616 .def_88))) (let ((.def_618 (and .def_100 .def_617))) (let ((.def_619 (not .def_618))) (let ((.def_620 (not .def_617))) (let ((.def_621 (and .def_620 .def_104))) (let ((.def_622 (not .def_621))) (let ((.def_623 (and .def_622 .def_619))) (let ((.def_624 (and .def_466 G953))) (let ((.def_625 (not .def_624))) (let ((.def_626 (and .def_625 .def_623))) (let ((.def_627 (not .def_626))) (let ((.def_628 (not .def_497))) (let ((.def_629 (and .def_57 .def_628))) (let ((.def_630 (and .def_629 .def_627))) (let ((.def_631 (not .def_630))) (let ((.def_632 (not .def_629))) (let ((.def_633 (and .def_632 .def_626))) (let ((.def_634 (not .def_633))) (let ((.def_635 (and .def_634 .def_631))) (let ((.def_636 (and .def_635 .def_614))) (let ((.def_637 (not .def_636))) (let ((.def_638 (not .def_614))) (let ((.def_639 (not .def_635))) (let ((.def_640 (and .def_639 .def_638))) (let ((.def_641 (not .def_640))) (let ((.def_642 (and .def_641 .def_637))) (let ((.def_643 (and .def_429 .def_24))) (let ((.def_644 (not .def_643))) (let ((.def_645 (and G137 .def_430))) (let ((.def_646 (not .def_645))) (let ((.def_647 (and .def_646 .def_644))) (let ((.def_648 (not .def_647))) (let ((.def_649 (and .def_499 G902 G475))) (let ((.def_650 (and .def_246 .def_649))) (let ((.def_651 (not .def_650))) (let ((.def_652 (not .def_649))) (let ((.def_653 (and .def_652 .def_247))) (let ((.def_654 (not .def_653))) (let ((.def_655 (and .def_654 .def_651))) (let ((.def_656 (not .def_655))) (let ((.def_657 (and .def_482 .def_656))) (let ((.def_658 (and .def_499 G902 G478))) (let ((.def_659 (and .def_189 .def_658))) (let ((.def_660 (not .def_659))) (let ((.def_661 (not .def_658))) (let ((.def_662 (and .def_190 .def_661))) (let ((.def_663 (not .def_662))) (let ((.def_664 (and .def_663 .def_660))) (let ((.def_665 (not .def_664))) (let ((.def_666 (and .def_482 .def_665))) (let ((.def_667 (and .def_145 .def_148))) (let ((.def_668 (and .def_415 .def_418))) (let ((.def_669 (and G475 .def_252))) (let ((.def_670 (not .def_669))) (let ((.def_671 (and .def_251 .def_670))) (let ((.def_672 (and .def_191 .def_192))) (let ((.def_673 (not .def_672))) (let ((.def_674 (and .def_673 .def_197))) (let ((.def_675 (and .def_307 .def_310))) (let ((.def_676 (and .def_358 .def_362))) (let ((.def_677 (not .def_676))) (let ((.def_678 (and .def_359 G472))) (let ((.def_679 (not .def_678))) (let ((.def_680 (and .def_679 .def_677))) (let ((.def_681 (and .def_680 .def_151 .def_675 .def_674 .def_671 .def_422 .def_668 .def_667))) (let ((.def_682 (not .def_681))) (let ((.def_683 (and .def_57 .def_480 .def_682))) (let ((.def_684 (and .def_259 .def_423 .def_471 .def_152 .def_426))) (let ((.def_685 (not .def_684))) (let ((.def_686 (and .def_259 .def_367 .def_152 .def_426 .def_441))) (let ((.def_687 (not .def_686))) (let ((.def_688 (and .def_259 .def_471 .def_436 .def_152 .def_441))) (let ((.def_689 (not .def_688))) (let ((.def_690 (and .def_259 .def_471 .def_256 .def_152 .def_441))) (let ((.def_691 (not .def_690))) (let ((.def_692 (and .def_259 .def_471 .def_432 .def_441 .def_426))) (let ((.def_693 (not .def_692))) (let ((.def_694 (and .def_150 .def_149))) (let ((.def_695 (and .def_259 .def_471 .def_441 .def_426 .def_694))) (let ((.def_696 (not .def_695))) (let ((.def_697 (and .def_419 .def_421))) (let ((.def_698 (and .def_259 .def_471 .def_697 .def_152 .def_426))) (let ((.def_699 (not .def_698))) (let ((.def_700 (and .def_259 .def_442 .def_152 .def_426 .def_441))) (let ((.def_701 (not .def_700))) (let ((.def_702 (and .def_701 .def_699 .def_696 .def_693 .def_691 .def_689 .def_687 .def_685))) (let ((.def_703 (and .def_450 .def_702 .def_497))) (let ((.def_704 (and .def_57 .def_703 .def_682 G952))) (let ((.def_705 (or .def_704 .def_683))) (let ((.def_706 (and .def_97 .def_493))) (let ((.def_707 (not .def_706))) (let ((.def_708 (and .def_494 G122))) (let ((.def_709 (not .def_708))) (let ((.def_710 (and .def_709 .def_707))) (let ((.def_711 (and G125 .def_444))) (let ((.def_712 (not .def_711))) (let ((.def_713 (and .def_6 .def_443))) (let ((.def_714 (not .def_713))) (let ((.def_715 (and .def_714 .def_712))) (let ((.def_716 (and G104 .def_492))) (let ((.def_717 (not .def_716))) (let ((.def_718 (and .def_77 .def_491))) (let ((.def_719 (not .def_718))) (let ((.def_720 (and .def_719 .def_717))) (let ((.def_721 (and .def_720 .def_715 .def_710 .def_705 .def_666 .def_657 .def_648 .def_642 .def_611 .def_605 .def_600 .def_594 .def_588 .def_582 .def_557 .def_551 .def_514 .def_508 .def_479 .def_465))) .def_721)))))))))))))))))))))))))))))))))))))))))))))))))))))))))))))))))))))))))))))))))))))))))))))))))))))))))))))))))))))))))))))))))))))))))))))))))))))))))))))))))))))))))))))))))))))))))))))))))))))))))))))))))))))))))))))))))))))))))))))))))))))))))))))))))))))))))))))))))))))))))))))))))))))))))))))))))))))))))))))))))))))))))))))))))))))))))))))))))))))))))))))))))))))))))))))))))))))))))))))))))))))))))))))))))))))))))))))))))))))))))))))))))))))))))))))))))))))))))))))))))))))))))))))))))))))))))))))))))))))))))))))))))))))))))))))))))))))))))))))))))))))))))))))))))))))))))))))))))))))))))))))))))))))))))))))))))))))))))))))))))))))))))))))))))))))))))))))))))))))))))))))))))))))))))))))))))))))))))))))))))))
(check-sat)
